(declare-const a Real)
(declare-const b Real)
(declare-const c Real)
(assert (= (+ a b c) 3))
(assert (> a 0))
(assert (> b 0))
(assert (> c 0))
(assert (not (<= (+ (* (pow (+ (* 2359296 (pow b 3)) (* 20736 c (pow (+ a b) 2))) -1) (pow (+ (* 20736 c (pow (+ a b) 3)) (* 983040 c (pow b 3)) (* 1376256 a (pow b 3))) 2)) (* -4521984 a (pow c 4)) (* -4521984 b (pow a 4)) (* -4319232 c (pow b 4)) (* -1507328 a (pow b 4)) (* -1507328 b (pow c 4)) (* -1376256 (pow a 2) (pow c 3)) (* -1376256 (pow a 3) (pow b 2)) (* -1304576 c (pow a 4)) (* 1376256 (pow b 2) (pow c 3)) (* 3735552 (pow a 3) (pow c 2)) (* 3670016 a b (pow c 3)) (* 4481024 a c (pow b 3)) (* 4481024 b c (pow a 3))) 0)))
(check-sat)
(get-model)
(exit)